p cnf 33 81
a 10 13 0
e 1 2 3 4 5 6 7 8 9 11 12 14 15 16 17 18 19 20 21 22 23 24 25 26 27 28 29 30 31 32 33 0
-3 -1 0
-3 -2 0
1 2 3 0
-5 3 0
-5 -4 0
-3 4 5 0
7 4 0
7 6 0
-4 -6 -7 0
-8 1 0
-8 7 0
-1 -7 8 0
-11 9 0
-11 -10 0
-9 10 11 0
-12 7 0
-12 11 0
-7 -11 12 0
-13 12 0
-13 1 0
-12 -1 13 0
14 8 0
14 -13 0
-8 13 -14 0
-15 5 0
-15 -14 0
-5 14 15 0
-17 -16 0
-17 -1 0
16 1 17 0
-18 9 0
-18 -7 0
-9 7 18 0
-18 12 -19 0
18 -12 -19 0
-18 -12 19 0
18 12 19 0
20 17 0
20 19 0
-17 -19 -20 0
21 15 0
21 -20 0
-15 20 -21 0
22 11 -23 0
-22 -11 -23 0
22 -11 23 0
-22 11 23 0
13 22 -24 0
-13 -22 -24 0
13 -22 24 0
-13 22 24 0
-25 -23 0
-25 -24 0
23 24 25 0
-21 -25 -26 0
21 25 -26 0
-21 25 26 0
21 -25 26 0
-28 2 0
-28 -27 0
-2 27 28 0
-29 9 0
-29 9 0
-9 29 0
-31 29 0
-31 30 0
-29 -30 31 0
32 -28 0
32 31 0
28 -31 -32 0
33 -26 0
33 32 0
26 -32 -33 0
22 -23 -19 -18 20 -11 4 0
-31 2 -10 -9 -7 18 25 0
23 -27 26 0
16 6 -30 -19 -7 8 17 0
17 10 -7 0
-12 28 17 21 -4 11 0
12 21 18 16 20 0
33 0
